(set-info :smt-lib-version 2.6)
(set-logic UF)
(set-info :source |Benchmarks from the paper: "Extending Sledgehammer with SMT Solvers" by Jasmin Blanchette, Sascha Bohme, and Lawrence C. Paulson, CADE 2011.  Translated to SMT2 by Andrew Reynolds and Morgan Deters.|)
(set-info :category "industrial")
(set-info :status unknown)
(declare-sort S1 0)
(declare-sort S2 0)
(declare-sort S3 0)
(declare-sort S4 0)
(declare-sort S5 0)
(declare-sort S6 0)
(declare-sort S7 0)
(declare-sort S8 0)
(declare-sort S9 0)
(declare-sort S10 0)
(declare-sort S11 0)
(declare-sort S12 0)
(declare-sort S13 0)
(declare-sort S14 0)
(declare-sort S15 0)
(declare-sort S16 0)
(declare-sort S17 0)
(declare-sort S18 0)
(declare-sort S19 0)
(declare-sort S20 0)
(declare-sort S21 0)
(declare-sort S22 0)
(declare-sort S23 0)
(declare-sort S24 0)
(declare-sort S25 0)
(declare-fun f1 () S1)
(declare-fun f2 () S1)
(declare-fun f3 () S2)
(declare-fun f4 () S2)
(declare-fun f5 (S3 S4) S1)
(declare-fun f6 (S4) S3)
(declare-fun f7 () S4)
(declare-fun f8 () S4)
(declare-fun f9 (S5 S4) S2)
(declare-fun f10 (S6 S2) S5)
(declare-fun f11 () S6)
(declare-fun f12 (S7 S2) S2)
(declare-fun f13 (S8 S9) S7)
(declare-fun f14 () S8)
(declare-fun f15 (S10 S9) S9)
(declare-fun f16 () S10)
(declare-fun f17 () S9)
(declare-fun f18 () S9)
(declare-fun f19 (S11 S2) S7)
(declare-fun f20 () S11)
(declare-fun f21 (S12 S2) S4)
(declare-fun f22 (S13 S9) S12)
(declare-fun f23 () S13)
(declare-fun f24 () S2)
(declare-fun f25 (S14 S4) S4)
(declare-fun f26 (S15 S4) S14)
(declare-fun f27 () S15)
(declare-fun f28 () S9)
(declare-fun f29 () S9)
(declare-fun f30 (S4) S3)
(declare-fun f31 () S4)
(declare-fun f32 () S2)
(declare-fun f33 () S2)
(declare-fun f34 (S16 S2) S10)
(declare-fun f35 () S16)
(declare-fun f36 () S12)
(declare-fun f37 (S2 S2) S1)
(declare-fun f38 () S15)
(declare-fun f39 (S17 S17) S1)
(declare-fun f40 (S17 S17) S1)
(declare-fun f41 () S17)
(declare-fun f42 (S18 S4) S17)
(declare-fun f43 (S19 S17) S18)
(declare-fun f44 () S19)
(declare-fun f45 () S2)
(declare-fun f46 () S4)
(declare-fun f47 (S20 S4) S9)
(declare-fun f48 (S21 S9) S20)
(declare-fun f49 () S21)
(declare-fun f50 (S22 S9) S10)
(declare-fun f51 () S22)
(declare-fun f52 () S17)
(declare-fun f53 (S23 S17) S17)
(declare-fun f54 (S24 S17) S23)
(declare-fun f55 () S24)
(declare-fun f56 () S15)
(declare-fun f57 () S2)
(declare-fun f58 () S2)
(declare-fun f59 (S17 S17) S1)
(declare-fun f60 (S9 S9) S1)
(declare-fun f61 (S4 S4) S1)
(declare-fun f62 (S25 S4) S3)
(assert (not (= f1 f2)))
(assert (let ((?v_0 (f10 f11 (f12 (f13 f14 (f15 f16 f17)) (f12 (f13 f14 f18) f4)))) (?v_1 (f21 (f22 f23 f17) f24))) (not (or (and (= f3 f4) (= (f5 (f6 f7) f8) f1)) (= (f9 ?v_0 f8) (f12 (f19 f20 (f9 ?v_0 ?v_1)) (f9 ?v_0 (f25 (f26 f27 f8) ?v_1))))))))
(assert (not (= f28 f29)))
(assert (= (f5 (f30 (f21 (f22 f23 f17) f24)) f8) f1))
(assert (not (= f31 f7)))
(assert (not (= f8 f7)))
(assert (not (= f32 f4)))
(assert (not (= (f21 (f22 f23 f17) f24) f7)))
(assert (not (= f24 f4)))
(assert (not (= f28 f29)))
(assert (forall ((?v0 S9)) (= (f5 (f30 (f21 (f22 f23 ?v0) f24)) f8) f1)))
(assert (= f33 (f12 (f13 f14 f28) f4)))
(assert (= (f5 (f30 (f21 (f22 f23 f17) f24)) f8) f1))
(assert (= f24 (f12 (f19 f20 (f9 (f10 f11 (f12 (f13 f14 (f15 f16 f17)) (f12 (f13 f14 f18) f4))) (f21 (f22 f23 f17) f24))) f33)))
(assert (= f32 (f12 (f19 f20 (f12 (f13 f14 (f15 f16 f17)) (f12 (f13 f14 f18) f4))) f3)))
(assert (= (f15 (f34 f35 f24) f17) f29))
(assert (=> (forall ((?v0 S2)) (=> (= f24 (f12 (f19 f20 (f9 (f10 f11 (f12 (f13 f14 (f15 f16 f17)) (f12 (f13 f14 f18) f4))) (f21 (f22 f23 f17) f24))) ?v0)) false)) false))
(assert (= (f21 f36 f24) f8))
(assert (not (= f33 f4)))
(assert (= (f37 (f9 (f10 f11 (f12 (f13 f14 (f15 f16 f17)) (f12 (f13 f14 f18) f4))) (f21 (f22 f23 f17) f24)) f24) f1))
(assert (=> (forall ((?v0 S2)) (=> (= f32 (f12 (f19 f20 (f12 (f13 f14 (f15 f16 f17)) (f12 (f13 f14 f18) f4))) ?v0)) false)) false))
(assert (forall ((?v0 S4) (?v1 S4) (?v2 S4)) (=> (= (f5 (f6 ?v0) ?v1) f1) (=> (= (f5 (f30 f7) ?v0) f1) (=> (= (f5 (f6 f7) ?v2) f1) (= (f5 (f6 (f25 (f26 f38 ?v0) ?v2)) (f25 (f26 f38 ?v1) ?v2)) f1))))))
(assert (forall ((?v0 S17) (?v1 S17) (?v2 S4)) (=> (= (f39 ?v0 ?v1) f1) (=> (= (f40 f41 ?v0) f1) (=> (= (f5 (f6 f7) ?v2) f1) (= (f39 (f42 (f43 f44 ?v0) ?v2) (f42 (f43 f44 ?v1) ?v2)) f1))))))
(assert (forall ((?v0 S4)) (= (f5 (f30 f7) ?v0) f1)))
(assert (forall ((?v0 S4)) (=> (= (f5 (f6 ?v0) f7) f1) false)))
(assert (forall ((?v0 S2) (?v1 S4)) (let ((?v_0 (f10 f11 ?v0))) (= (f9 ?v_0 ?v1) (ite (= ?v1 f7) f45 (f12 (f19 f20 ?v0) (f9 ?v_0 (f25 (f26 f27 ?v1) f46))))))))
(assert (forall ((?v0 S9) (?v1 S4)) (let ((?v_0 (f48 f49 ?v0))) (= (f47 ?v_0 ?v1) (ite (= ?v1 f7) f18 (f15 (f50 f51 ?v0) (f47 ?v_0 (f25 (f26 f27 ?v1) f46))))))))
(assert (forall ((?v0 S17) (?v1 S4)) (let ((?v_0 (f43 f44 ?v0))) (= (f42 ?v_0 ?v1) (ite (= ?v1 f7) f52 (f53 (f54 f55 ?v0) (f42 ?v_0 (f25 (f26 f27 ?v1) f46))))))))
(assert (forall ((?v0 S4) (?v1 S4)) (let ((?v_0 (f26 f38 ?v0))) (= (f25 ?v_0 ?v1) (ite (= ?v1 f7) f46 (f25 (f26 f56 ?v0) (f25 ?v_0 (f25 (f26 f27 ?v1) f46))))))))
(assert (forall ((?v0 S17) (?v1 S4)) (=> (= (f39 f52 ?v0) f1) (=> (= (f5 (f6 f7) ?v1) f1) (= (f39 f52 (f42 (f43 f44 ?v0) ?v1)) f1)))))
(assert (forall ((?v0 S4) (?v1 S4)) (let ((?v_0 (f6 f46))) (=> (= (f5 ?v_0 ?v0) f1) (=> (= (f5 (f6 f7) ?v1) f1) (= (f5 ?v_0 (f25 (f26 f38 ?v0) ?v1)) f1))))))
(assert (forall ((?v0 S17) (?v1 S4) (?v2 S4)) (let ((?v_0 (f43 f44 ?v0))) (=> (= (f39 f52 ?v0) f1) (= (= (f40 (f42 ?v_0 ?v1) (f42 ?v_0 ?v2)) f1) (= (f5 (f30 ?v1) ?v2) f1))))))
(assert (forall ((?v0 S4) (?v1 S4) (?v2 S4)) (let ((?v_0 (f26 f38 ?v0))) (=> (= (f5 (f6 f46) ?v0) f1) (= (= (f5 (f30 (f25 ?v_0 ?v1)) (f25 ?v_0 ?v2)) f1) (= (f5 (f30 ?v1) ?v2) f1))))))
(assert (forall ((?v0 S17) (?v1 S4) (?v2 S4)) (let ((?v_0 (f43 f44 ?v0))) (=> (= (f39 f52 ?v0) f1) (=> (= (f40 (f42 ?v_0 ?v1) (f42 ?v_0 ?v2)) f1) (= (f5 (f30 ?v1) ?v2) f1))))))
(assert (forall ((?v0 S4) (?v1 S4) (?v2 S4)) (let ((?v_0 (f26 f38 ?v0))) (=> (= (f5 (f6 f46) ?v0) f1) (=> (= (f5 (f30 (f25 ?v_0 ?v1)) (f25 ?v_0 ?v2)) f1) (= (f5 (f30 ?v1) ?v2) f1))))))
(assert (forall ((?v0 S4) (?v1 S4) (?v2 S17)) (let ((?v_0 (f43 f44 ?v2))) (=> (= (f5 (f30 ?v0) ?v1) f1) (=> (= (f40 f41 ?v2) f1) (=> (= (f40 ?v2 f52) f1) (= (f40 (f42 ?v_0 ?v1) (f42 ?v_0 ?v0)) f1)))))))
(assert (forall ((?v0 S4) (?v1 S4) (?v2 S4)) (let ((?v_0 (f26 f38 ?v2))) (=> (= (f5 (f30 ?v0) ?v1) f1) (=> (= (f5 (f30 f7) ?v2) f1) (=> (= (f5 (f30 ?v2) f46) f1) (= (f5 (f30 (f25 ?v_0 ?v1)) (f25 ?v_0 ?v0)) f1)))))))
(assert (forall ((?v0 S4) (?v1 S4) (?v2 S4)) (let ((?v_0 (f30 f7))) (=> (= (f25 (f26 f38 ?v0) ?v1) (f25 (f26 f38 ?v2) ?v1)) (=> (= (f5 ?v_0 ?v0) f1) (=> (= (f5 ?v_0 ?v2) f1) (=> (= (f5 (f6 f7) ?v1) f1) (= ?v0 ?v2))))))))
(assert (forall ((?v0 S17) (?v1 S4) (?v2 S17)) (=> (= (f42 (f43 f44 ?v0) ?v1) (f42 (f43 f44 ?v2) ?v1)) (=> (= (f40 f41 ?v0) f1) (=> (= (f40 f41 ?v2) f1) (=> (= (f5 (f6 f7) ?v1) f1) (= ?v0 ?v2)))))))
(assert (= (f21 f36 f33) f7))
(assert (forall ((?v0 S9)) (=> (= (f15 (f34 f35 f58) ?v0) f29) (= (f15 (f34 f35 f57) ?v0) f29))))
(assert (forall ((?v0 S9)) (=> (= (f15 (f34 f35 f24) ?v0) f29) (= (f15 (f34 f35 f32) ?v0) f29))))
(assert (= (f21 f36 f58) f31))
(assert (forall ((?v0 S4)) (=> (= (f5 (f6 ?v0) f8) f1) (forall ((?v1 S2) (?v2 S2)) (=> (forall ((?v3 S9)) (=> (= (f15 (f34 f35 ?v1) ?v3) f29) (= (f15 (f34 f35 ?v2) ?v3) f29))) (=> (= (f21 f36 ?v1) ?v0) (=> (not (= ?v0 f7)) (= (f37 ?v1 (f9 (f10 f11 ?v2) ?v0)) f1))))))))
(assert (=> (forall ((?v0 S9)) (=> (= f33 (f12 (f13 f14 ?v0) f4)) false)) false))
(assert (exists ((?v0 S9)) (= f33 (f12 (f13 f14 ?v0) f4))))
(assert (= (f37 (f12 (f13 f14 (f15 f16 f17)) (f12 (f13 f14 f18) f4)) f32) f1))
(assert (=> (= f32 f4) (= (f37 f24 (f9 (f10 f11 f32) f8)) f1)))
(assert (forall ((?v0 S4)) (= (f25 (f26 f56 f46) ?v0) ?v0)))
(assert (forall ((?v0 S4) (?v1 S4)) (= (= f46 (f25 (f26 f56 ?v0) ?v1)) (and (= ?v0 f46) (= ?v1 f46)))))
(assert (forall ((?v0 S4)) (= (f25 (f26 f56 ?v0) f46) ?v0)))
(assert (forall ((?v0 S4) (?v1 S4)) (= (= (f25 (f26 f56 ?v0) ?v1) f46) (and (= ?v0 f46) (= ?v1 f46)))))
(assert (forall ((?v0 S4) (?v1 S4)) (=> (= ?v0 (f25 (f26 f56 ?v0) ?v1)) (or (= ?v1 f46) (= ?v0 f7)))))
(assert (forall ((?v0 S17) (?v1 S17) (?v2 S4)) (=> (= (f59 ?v0 ?v1) f1) (= (f59 (f42 (f43 f44 ?v0) ?v2) (f42 (f43 f44 ?v1) ?v2)) f1))))
(assert (forall ((?v0 S9) (?v1 S9) (?v2 S4)) (=> (= (f60 ?v0 ?v1) f1) (= (f60 (f47 (f48 f49 ?v0) ?v2) (f47 (f48 f49 ?v1) ?v2)) f1))))
(assert (forall ((?v0 S4) (?v1 S4) (?v2 S4)) (=> (= (f61 ?v0 ?v1) f1) (= (f61 (f25 (f26 f38 ?v0) ?v2) (f25 (f26 f38 ?v1) ?v2)) f1))))
(assert (forall ((?v0 S2) (?v1 S2) (?v2 S4)) (=> (= (f37 ?v0 ?v1) f1) (= (f37 (f9 (f10 f11 ?v0) ?v2) (f9 (f10 f11 ?v1) ?v2)) f1))))
(assert (forall ((?v0 S4) (?v1 S4) (?v2 S4)) (= (= (f25 (f26 f56 ?v0) ?v1) (f25 (f26 f56 ?v2) ?v1)) (or (= ?v0 ?v2) (= ?v1 f7)))))
(assert (forall ((?v0 S4) (?v1 S4) (?v2 S4)) (let ((?v_0 (f26 f56 ?v0))) (= (= (f25 ?v_0 ?v1) (f25 ?v_0 ?v2)) (or (= ?v1 ?v2) (= ?v0 f7))))))
(assert (forall ((?v0 S4) (?v1 S4)) (= (= (f25 (f26 f56 ?v0) ?v1) f7) (or (= ?v0 f7) (= ?v1 f7)))))
(assert (forall ((?v0 S4)) (= (f25 (f26 f56 ?v0) f7) f7)))
(assert (forall ((?v0 S4)) (= (f25 (f26 f56 f7) ?v0) f7)))
(assert (forall ((?v0 S17) (?v1 S4) (?v2 S4)) (let ((?v_0 (f43 f44 ?v0))) (= (f42 ?v_0 (f25 (f26 f56 ?v1) ?v2)) (f42 (f43 f44 (f42 ?v_0 ?v1)) ?v2)))))
(assert (forall ((?v0 S9) (?v1 S4) (?v2 S4)) (let ((?v_0 (f48 f49 ?v0))) (= (f47 ?v_0 (f25 (f26 f56 ?v1) ?v2)) (f47 (f48 f49 (f47 ?v_0 ?v1)) ?v2)))))
(assert (forall ((?v0 S2) (?v1 S4) (?v2 S4)) (let ((?v_0 (f10 f11 ?v0))) (= (f9 ?v_0 (f25 (f26 f56 ?v1) ?v2)) (f9 (f10 f11 (f9 ?v_0 ?v1)) ?v2)))))
(assert (forall ((?v0 S4) (?v1 S4) (?v2 S4)) (let ((?v_0 (f26 f38 ?v0))) (= (f25 ?v_0 (f25 (f26 f56 ?v1) ?v2)) (f25 (f26 f38 (f25 ?v_0 ?v1)) ?v2)))))
(assert (forall ((?v0 S17)) (= (f42 (f43 f44 ?v0) f46) ?v0)))
(assert (forall ((?v0 S9)) (= (f47 (f48 f49 ?v0) f46) ?v0)))
(assert (forall ((?v0 S2)) (= (f9 (f10 f11 ?v0) f46) ?v0)))
(assert (forall ((?v0 S4)) (= (f25 (f26 f38 ?v0) f46) ?v0)))
(assert (forall ((?v0 S4) (?v1 S4) (?v2 S4) (?v3 S4)) (=> (= (f5 (f30 ?v0) ?v1) f1) (=> (= (f5 (f30 ?v2) ?v3) f1) (= (f5 (f30 (f25 (f26 f56 ?v0) ?v2)) (f25 (f26 f56 ?v1) ?v3)) f1)))))
(assert (forall ((?v0 S4) (?v1 S4) (?v2 S4)) (let ((?v_0 (f26 f56 ?v2))) (=> (= (f5 (f30 ?v0) ?v1) f1) (= (f5 (f30 (f25 ?v_0 ?v0)) (f25 ?v_0 ?v1)) f1)))))
(assert (forall ((?v0 S4) (?v1 S4) (?v2 S4)) (=> (= (f5 (f30 ?v0) ?v1) f1) (= (f5 (f30 (f25 (f26 f56 ?v0) ?v2)) (f25 (f26 f56 ?v1) ?v2)) f1))))
(assert (forall ((?v0 S4)) (let ((?v_0 (f26 f56 ?v0))) (= (f5 (f30 ?v0) (f25 ?v_0 (f25 ?v_0 ?v0))) f1))))
(assert (forall ((?v0 S4)) (= (f5 (f30 ?v0) (f25 (f26 f56 ?v0) ?v0)) f1)))
(assert (forall ((?v0 S4) (?v1 S4) (?v2 S4)) (= (f25 (f26 f56 (f25 (f26 f27 ?v0) ?v1)) ?v2) (f25 (f26 f27 (f25 (f26 f56 ?v0) ?v2)) (f25 (f26 f56 ?v1) ?v2)))))
(assert (forall ((?v0 S4) (?v1 S4) (?v2 S4)) (let ((?v_0 (f26 f56 ?v0))) (= (f25 ?v_0 (f25 (f26 f27 ?v1) ?v2)) (f25 (f26 f27 (f25 ?v_0 ?v1)) (f25 ?v_0 ?v2))))))
(assert (forall ((?v0 S17) (?v1 S4) (?v2 S17) (?v3 S4)) (let ((?v_0 (f43 f44 ?v0))) (=> (= (f59 (f42 ?v_0 ?v1) ?v2) f1) (=> (= (f5 (f30 ?v3) ?v1) f1) (= (f59 (f42 ?v_0 ?v3) ?v2) f1))))))
(assert (forall ((?v0 S9) (?v1 S4) (?v2 S9) (?v3 S4)) (let ((?v_0 (f48 f49 ?v0))) (=> (= (f60 (f47 ?v_0 ?v1) ?v2) f1) (=> (= (f5 (f30 ?v3) ?v1) f1) (= (f60 (f47 ?v_0 ?v3) ?v2) f1))))))
(assert (forall ((?v0 S4) (?v1 S4) (?v2 S4) (?v3 S4)) (let ((?v_0 (f26 f38 ?v0))) (=> (= (f61 (f25 ?v_0 ?v1) ?v2) f1) (=> (= (f5 (f30 ?v3) ?v1) f1) (= (f61 (f25 ?v_0 ?v3) ?v2) f1))))))
(assert (forall ((?v0 S2) (?v1 S4) (?v2 S2) (?v3 S4)) (let ((?v_0 (f10 f11 ?v0))) (=> (= (f37 (f9 ?v_0 ?v1) ?v2) f1) (=> (= (f5 (f30 ?v3) ?v1) f1) (= (f37 (f9 ?v_0 ?v3) ?v2) f1))))))
(assert (forall ((?v0 S17) (?v1 S17) (?v2 S4) (?v3 S4)) (=> (= (f59 ?v0 ?v1) f1) (=> (= (f5 (f30 ?v2) ?v3) f1) (= (f59 (f42 (f43 f44 ?v0) ?v2) (f42 (f43 f44 ?v1) ?v3)) f1)))))
(assert (forall ((?v0 S9) (?v1 S9) (?v2 S4) (?v3 S4)) (=> (= (f60 ?v0 ?v1) f1) (=> (= (f5 (f30 ?v2) ?v3) f1) (= (f60 (f47 (f48 f49 ?v0) ?v2) (f47 (f48 f49 ?v1) ?v3)) f1)))))
(assert (forall ((?v0 S4) (?v1 S4) (?v2 S4) (?v3 S4)) (=> (= (f61 ?v0 ?v1) f1) (=> (= (f5 (f30 ?v2) ?v3) f1) (= (f61 (f25 (f26 f38 ?v0) ?v2) (f25 (f26 f38 ?v1) ?v3)) f1)))))
(assert (forall ((?v0 S2) (?v1 S2) (?v2 S4) (?v3 S4)) (=> (= (f37 ?v0 ?v1) f1) (=> (= (f5 (f30 ?v2) ?v3) f1) (= (f37 (f9 (f10 f11 ?v0) ?v2) (f9 (f10 f11 ?v1) ?v3)) f1)))))
(assert (forall ((?v0 S4) (?v1 S4) (?v2 S17)) (let ((?v_0 (f43 f44 ?v2))) (=> (= (f5 (f30 ?v0) ?v1) f1) (= (f59 (f42 ?v_0 ?v0) (f42 ?v_0 ?v1)) f1)))))
(assert (forall ((?v0 S4) (?v1 S4) (?v2 S9)) (let ((?v_0 (f48 f49 ?v2))) (=> (= (f5 (f30 ?v0) ?v1) f1) (= (f60 (f47 ?v_0 ?v0) (f47 ?v_0 ?v1)) f1)))))
(assert (forall ((?v0 S4) (?v1 S4) (?v2 S4)) (let ((?v_0 (f26 f38 ?v2))) (=> (= (f5 (f30 ?v0) ?v1) f1) (= (f61 (f25 ?v_0 ?v0) (f25 ?v_0 ?v1)) f1)))))
(assert (forall ((?v0 S4) (?v1 S4) (?v2 S2)) (let ((?v_0 (f10 f11 ?v2))) (=> (= (f5 (f30 ?v0) ?v1) f1) (= (f37 (f9 ?v_0 ?v0) (f9 ?v_0 ?v1)) f1)))))
(assert (forall ((?v0 S4) (?v1 S4) (?v2 S4)) (let ((?v_0 (f26 f38 ?v0))) (=> (= (f5 (f6 f7) ?v0) f1) (=> (= (f5 (f6 (f25 ?v_0 ?v1)) (f25 ?v_0 ?v2)) f1) (= (f5 (f6 ?v1) ?v2) f1))))))
(assert (forall ((?v0 S4) (?v1 S4)) (let ((?v_0 (f6 f7))) (= (= (f5 ?v_0 (f25 (f26 f38 ?v0) ?v1)) f1) (or (= (f5 ?v_0 ?v0) f1) (= ?v1 f7))))))
(assert (forall ((?v0 S4) (?v1 S4) (?v2 S4)) (let ((?v_0 (f26 f56 ?v2))) (=> (= (f5 (f6 ?v0) ?v1) f1) (=> (= (f5 (f6 f7) ?v2) f1) (= (f5 (f6 (f25 ?v_0 ?v0)) (f25 ?v_0 ?v1)) f1))))))
(assert (forall ((?v0 S4) (?v1 S4) (?v2 S4)) (=> (= (f5 (f6 ?v0) ?v1) f1) (=> (= (f5 (f6 f7) ?v2) f1) (= (f5 (f6 (f25 (f26 f56 ?v0) ?v2)) (f25 (f26 f56 ?v1) ?v2)) f1)))))
(assert (forall ((?v0 S4) (?v1 S4) (?v2 S4)) (= (= (f5 (f6 (f25 (f26 f56 ?v0) ?v1)) (f25 (f26 f56 ?v2) ?v1)) f1) (and (= (f5 (f6 f7) ?v1) f1) (= (f5 (f6 ?v0) ?v2) f1)))))
(assert (forall ((?v0 S4) (?v1 S4) (?v2 S4)) (let ((?v_0 (f26 f56 ?v0))) (= (= (f5 (f6 (f25 ?v_0 ?v1)) (f25 ?v_0 ?v2)) f1) (and (= (f5 (f6 f7) ?v0) f1) (= (f5 (f6 ?v1) ?v2) f1))))))
(assert (forall ((?v0 S4) (?v1 S4)) (let ((?v_0 (f6 f7))) (= (= (f5 ?v_0 (f25 (f26 f56 ?v0) ?v1)) f1) (and (= (f5 ?v_0 ?v0) f1) (= (f5 ?v_0 ?v1) f1))))))
(assert (forall ((?v0 S4) (?v1 S4) (?v2 S4)) (= (= (f5 (f30 (f25 (f26 f56 ?v0) ?v1)) (f25 (f26 f56 ?v2) ?v1)) f1) (=> (= (f5 (f6 f7) ?v1) f1) (= (f5 (f30 ?v0) ?v2) f1)))))
(assert (forall ((?v0 S4) (?v1 S4) (?v2 S4)) (let ((?v_0 (f26 f56 ?v0))) (= (= (f5 (f30 (f25 ?v_0 ?v1)) (f25 ?v_0 ?v2)) f1) (=> (= (f5 (f6 f7) ?v0) f1) (= (f5 (f30 ?v1) ?v2) f1))))))
(assert (forall ((?v0 S4) (?v1 S9)) (=> (or (= (f5 (f6 f7) ?v0) f1) (= ?v1 f18)) (= (f60 ?v1 (f47 (f48 f49 ?v1) ?v0)) f1))))
(assert (forall ((?v0 S4) (?v1 S17)) (=> (or (= (f5 (f6 f7) ?v0) f1) (= ?v1 f52)) (= (f59 ?v1 (f42 (f43 f44 ?v1) ?v0)) f1))))
(assert (forall ((?v0 S4) (?v1 S4)) (=> (or (= (f5 (f6 f7) ?v0) f1) (= ?v1 f46)) (= (f61 ?v1 (f25 (f26 f38 ?v1) ?v0)) f1))))
(assert (forall ((?v0 S4) (?v1 S2)) (=> (or (= (f5 (f6 f7) ?v0) f1) (= ?v1 f45)) (= (f37 ?v1 (f9 (f10 f11 ?v1) ?v0)) f1))))
(assert (forall ((?v0 S4) (?v1 S4) (?v2 S25)) (let ((?v_0 (= (f5 (f62 ?v2 ?v1) ?v0) f1))) (=> (=> (= (f5 (f6 ?v0) ?v1) f1) ?v_0) (=> (=> (= ?v0 ?v1) ?v_0) (=> (=> (= (f5 (f6 ?v1) ?v0) f1) ?v_0) ?v_0))))))
(assert (forall ((?v0 S4) (?v1 S4)) (=> (= (f5 (f6 ?v0) ?v1) f1) (not (= ?v0 ?v1)))))
(assert (forall ((?v0 S4) (?v1 S4)) (=> (= (f5 (f6 ?v0) ?v1) f1) (not (= ?v1 ?v0)))))
(assert (forall ((?v0 S4)) (=> (= (f5 (f6 ?v0) ?v0) f1) false)))
(assert (forall ((?v0 S4) (?v1 S4)) (=> (not (= ?v0 ?v1)) (=> (=> (= (f5 (f6 ?v0) ?v1) f1) false) (=> (=> (= (f5 (f6 ?v1) ?v0) f1) false) false)))))
(assert (forall ((?v0 S4) (?v1 S4)) (= (not (= ?v0 ?v1)) (or (= (f5 (f6 ?v0) ?v1) f1) (= (f5 (f6 ?v1) ?v0) f1)))))
(assert (forall ((?v0 S4)) (not (= (f5 (f6 ?v0) ?v0) f1))))
(assert (forall ((?v0 S4) (?v1 S4)) (=> (= (f5 (f30 ?v0) ?v1) f1) (=> (= (f5 (f30 ?v1) ?v0) f1) (= ?v0 ?v1)))))
(assert (forall ((?v0 S4) (?v1 S4) (?v2 S4)) (let ((?v_0 (f30 ?v0))) (=> (= (f5 ?v_0 ?v1) f1) (=> (= (f5 (f30 ?v1) ?v2) f1) (= (f5 ?v_0 ?v2) f1))))))
(assert (forall ((?v0 S4) (?v1 S4)) (=> (= ?v0 ?v1) (= (f5 (f30 ?v0) ?v1) f1))))
(assert (forall ((?v0 S4) (?v1 S4)) (or (= (f5 (f30 ?v0) ?v1) f1) (= (f5 (f30 ?v1) ?v0) f1))))
(assert (forall ((?v0 S4)) (= (f5 (f30 ?v0) ?v0) f1)))
(assert (forall ((?v0 S4) (?v1 S4) (?v2 S4)) (let ((?v_0 (f26 f27 ?v0))) (= (f25 (f26 f27 (f25 ?v_0 ?v1)) ?v2) (f25 (f26 f27 (f25 ?v_0 ?v2)) ?v1)))))
(assert (forall ((?v0 S2) (?v1 S4)) (=> (not (= ?v0 f4)) (not (= (f9 (f10 f11 ?v0) ?v1) f4)))))
(assert (forall ((?v0 S9) (?v1 S4)) (=> (not (= ?v0 f29)) (not (= (f47 (f48 f49 ?v0) ?v1) f29)))))
(assert (forall ((?v0 S17) (?v1 S4)) (=> (not (= ?v0 f41)) (not (= (f42 (f43 f44 ?v0) ?v1) f41)))))
(assert (forall ((?v0 S17) (?v1 S17) (?v2 S4)) (= (f42 (f43 f44 (f53 (f54 f55 ?v0) ?v1)) ?v2) (f53 (f54 f55 (f42 (f43 f44 ?v0) ?v2)) (f42 (f43 f44 ?v1) ?v2)))))
(assert (forall ((?v0 S9) (?v1 S9) (?v2 S4)) (= (f47 (f48 f49 (f15 (f50 f51 ?v0) ?v1)) ?v2) (f15 (f50 f51 (f47 (f48 f49 ?v0) ?v2)) (f47 (f48 f49 ?v1) ?v2)))))
(assert (forall ((?v0 S2) (?v1 S2) (?v2 S4)) (= (f9 (f10 f11 (f12 (f19 f20 ?v0) ?v1)) ?v2) (f12 (f19 f20 (f9 (f10 f11 ?v0) ?v2)) (f9 (f10 f11 ?v1) ?v2)))))
(assert (forall ((?v0 S4) (?v1 S4) (?v2 S4)) (= (f25 (f26 f38 (f25 (f26 f56 ?v0) ?v1)) ?v2) (f25 (f26 f56 (f25 (f26 f38 ?v0) ?v2)) (f25 (f26 f38 ?v1) ?v2)))))
(assert (forall ((?v0 S17) (?v1 S4)) (let ((?v_0 (f42 (f43 f44 ?v0) ?v1))) (= (f53 (f54 f55 ?v_0) ?v0) (f53 (f54 f55 ?v0) ?v_0)))))
(assert (forall ((?v0 S9) (?v1 S4)) (let ((?v_0 (f47 (f48 f49 ?v0) ?v1))) (= (f15 (f50 f51 ?v_0) ?v0) (f15 (f50 f51 ?v0) ?v_0)))))
(assert (forall ((?v0 S2) (?v1 S4)) (let ((?v_0 (f9 (f10 f11 ?v0) ?v1))) (= (f12 (f19 f20 ?v_0) ?v0) (f12 (f19 f20 ?v0) ?v_0)))))
(assert (forall ((?v0 S4) (?v1 S4)) (let ((?v_0 (f25 (f26 f38 ?v0) ?v1))) (= (f25 (f26 f56 ?v_0) ?v0) (f25 (f26 f56 ?v0) ?v_0)))))
(assert (forall ((?v0 S4)) (= (f9 (f10 f11 f45) ?v0) f45)))
(assert (forall ((?v0 S4)) (= (f47 (f48 f49 f18) ?v0) f18)))
(assert (forall ((?v0 S4)) (= (f42 (f43 f44 f52) ?v0) f52)))
(assert (forall ((?v0 S4)) (= (f25 (f26 f38 f46) ?v0) f46)))
(assert (forall ((?v0 S4)) (=> (=> (= ?v0 f7) false) (= (f5 (f6 f7) ?v0) f1))))
(assert (forall ((?v0 S4) (?v1 S4)) (=> (= (f5 (f6 ?v0) ?v1) f1) (not (= ?v1 f7)))))
(assert (forall ((?v0 S4)) (= (= (f5 (f6 ?v0) f7) f1) false)))
(assert (forall ((?v0 S4)) (= (not (= ?v0 f7)) (= (f5 (f6 f7) ?v0) f1))))
(assert (forall ((?v0 S4)) (not (= (f5 (f6 ?v0) f7) f1))))
(assert (forall ((?v0 S4)) (= (= (f5 (f30 ?v0) f7) f1) (= ?v0 f7))))
(assert (forall ((?v0 S4)) (= (= (f5 (f30 f7) ?v0) f1) true)))
(assert (forall ((?v0 S4) (?v1 S4)) (=> (or (= (f5 (f6 ?v0) ?v1) f1) (= ?v0 ?v1)) (= (f5 (f30 ?v0) ?v1) f1))))
(assert (forall ((?v0 S4) (?v1 S4)) (=> (= (f5 (f30 ?v0) ?v1) f1) (=> (not (= ?v0 ?v1)) (= (f5 (f6 ?v0) ?v1) f1)))))
(assert (forall ((?v0 S4) (?v1 S4)) (=> (= (f5 (f6 ?v0) ?v1) f1) (= (f5 (f30 ?v0) ?v1) f1))))
(assert (forall ((?v0 S4) (?v1 S4)) (= (= (f5 (f30 ?v0) ?v1) f1) (or (= (f5 (f6 ?v0) ?v1) f1) (= ?v0 ?v1)))))
(assert (forall ((?v0 S4) (?v1 S4)) (= (= (f5 (f6 ?v0) ?v1) f1) (and (= (f5 (f30 ?v0) ?v1) f1) (not (= ?v0 ?v1))))))
(assert (forall ((?v0 S4) (?v1 S4)) (=> (= (f25 (f26 f27 ?v0) ?v1) f7) (=> (= (f25 (f26 f27 ?v1) ?v0) f7) (= ?v0 ?v1)))))
(assert (forall ((?v0 S4)) (= (f25 (f26 f27 ?v0) ?v0) f7)))
(assert (forall ((?v0 S4)) (= (f25 (f26 f27 ?v0) f7) ?v0)))
(assert (forall ((?v0 S4)) (= (f25 (f26 f27 f7) ?v0) f7)))
(assert (forall ((?v0 S4) (?v1 S4) (?v2 S4)) (let ((?v_0 (f6 ?v0)) (?v_1 (f26 f27 ?v2))) (=> (= (f5 ?v_0 ?v1) f1) (=> (= (f5 ?v_0 ?v2) f1) (= (f5 (f6 (f25 ?v_1 ?v1)) (f25 ?v_1 ?v0)) f1))))))
(assert (forall ((?v0 S4) (?v1 S4) (?v2 S4)) (=> (= (f5 (f6 ?v0) ?v1) f1) (= (f5 (f6 (f25 (f26 f27 ?v0) ?v2)) ?v1) f1))))
(assert (forall ((?v0 S4) (?v1 S4) (?v2 S4)) (let ((?v_0 (f30 ?v0))) (=> (= (f5 ?v_0 ?v1) f1) (=> (= (f5 ?v_0 ?v2) f1) (= (= (f5 (f30 (f25 (f26 f27 ?v1) ?v0)) (f25 (f26 f27 ?v2) ?v0)) f1) (= (f5 (f30 ?v1) ?v2) f1)))))))
(assert (forall ((?v0 S4) (?v1 S4) (?v2 S4)) (let ((?v_0 (f30 ?v0)) (?v_1 (f26 f27 ?v1))) (=> (= (f5 ?v_0 ?v1) f1) (=> (= (f5 ?v_0 ?v2) f1) (= (f25 (f26 f27 (f25 ?v_1 ?v0)) (f25 (f26 f27 ?v2) ?v0)) (f25 ?v_1 ?v2)))))))
(assert (forall ((?v0 S4) (?v1 S4) (?v2 S4)) (let ((?v_0 (f30 ?v0))) (=> (= (f5 ?v_0 ?v1) f1) (=> (= (f5 ?v_0 ?v2) f1) (= (= (f25 (f26 f27 ?v1) ?v0) (f25 (f26 f27 ?v2) ?v0)) (= ?v1 ?v2)))))))
(assert (forall ((?v0 S4) (?v1 S4)) (let ((?v_0 (f26 f27 ?v1))) (=> (= (f5 (f30 ?v0) ?v1) f1) (= (f25 ?v_0 (f25 ?v_0 ?v0)) ?v0)))))
(assert (forall ((?v0 S4) (?v1 S4) (?v2 S4)) (=> (= (f5 (f30 ?v0) ?v1) f1) (= (f5 (f30 (f25 (f26 f27 ?v0) ?v2)) (f25 (f26 f27 ?v1) ?v2)) f1))))
(assert (forall ((?v0 S4) (?v1 S4) (?v2 S4)) (let ((?v_0 (f26 f27 ?v2))) (=> (= (f5 (f30 ?v0) ?v1) f1) (= (f5 (f30 (f25 ?v_0 ?v1)) (f25 ?v_0 ?v0)) f1)))))
(assert (forall ((?v0 S4) (?v1 S4)) (= (f5 (f30 (f25 (f26 f27 ?v0) ?v1)) ?v0) f1)))
(assert (forall ((?v0 S4) (?v1 S4) (?v2 S4)) (=> (= (f5 (f30 ?v0) ?v1) f1) (=> (= (f5 (f30 f7) ?v0) f1) (= (f5 (f30 (f25 (f26 f38 ?v0) ?v2)) (f25 (f26 f38 ?v1) ?v2)) f1)))))
(assert (forall ((?v0 S17) (?v1 S17) (?v2 S4)) (=> (= (f40 ?v0 ?v1) f1) (=> (= (f40 f41 ?v0) f1) (= (f40 (f42 (f43 f44 ?v0) ?v2) (f42 (f43 f44 ?v1) ?v2)) f1)))))
(assert (forall ((?v0 S4) (?v1 S4)) (let ((?v_0 (f30 f7))) (=> (= (f5 ?v_0 ?v0) f1) (= (f5 ?v_0 (f25 (f26 f38 ?v0) ?v1)) f1)))))
(assert (forall ((?v0 S17) (?v1 S4)) (=> (= (f40 f41 ?v0) f1) (= (f40 f41 (f42 (f43 f44 ?v0) ?v1)) f1))))
(assert (forall ((?v0 S4) (?v1 S4)) (let ((?v_0 (f6 f7))) (=> (= (f5 ?v_0 ?v0) f1) (= (f5 ?v_0 (f25 (f26 f38 ?v0) ?v1)) f1)))))
(assert (forall ((?v0 S17) (?v1 S4)) (=> (= (f39 f41 ?v0) f1) (= (f39 f41 (f42 (f43 f44 ?v0) ?v1)) f1))))
(assert (forall ((?v0 S17) (?v1 S4)) (=> (= (f40 f52 ?v0) f1) (= (f40 f52 (f42 (f43 f44 ?v0) ?v1)) f1))))
(assert (forall ((?v0 S4) (?v1 S4)) (let ((?v_0 (f30 f46))) (=> (= (f5 ?v_0 ?v0) f1) (= (f5 ?v_0 (f25 (f26 f38 ?v0) ?v1)) f1)))))
(assert (forall ((?v0 S2) (?v1 S4)) (= (= (f9 (f10 f11 ?v0) ?v1) f4) (and (= ?v0 f4) (not (= ?v1 f7))))))
(assert (forall ((?v0 S4) (?v1 S4)) (= (= (f25 (f26 f38 ?v0) ?v1) f7) (and (= ?v0 f7) (not (= ?v1 f7))))))
(assert (forall ((?v0 S9) (?v1 S4)) (= (= (f47 (f48 f49 ?v0) ?v1) f29) (and (= ?v0 f29) (not (= ?v1 f7))))))
(assert (forall ((?v0 S17) (?v1 S4)) (= (= (f42 (f43 f44 ?v0) ?v1) f41) (and (= ?v0 f41) (not (= ?v1 f7))))))
(assert (forall ((?v0 S17) (?v1 S4) (?v2 S4)) (let ((?v_0 (f43 f44 ?v0))) (=> (= (f39 f52 ?v0) f1) (= (= (f42 ?v_0 ?v1) (f42 ?v_0 ?v2)) (= ?v1 ?v2))))))
(assert (forall ((?v0 S4) (?v1 S4) (?v2 S4)) (let ((?v_0 (f26 f38 ?v0))) (=> (= (f5 (f6 f46) ?v0) f1) (= (= (f25 ?v_0 ?v1) (f25 ?v_0 ?v2)) (= ?v1 ?v2))))))
(assert (forall ((?v0 S2)) (= (f9 (f10 f11 ?v0) f7) f45)))
(assert (forall ((?v0 S9)) (= (f47 (f48 f49 ?v0) f7) f18)))
(assert (forall ((?v0 S17)) (= (f42 (f43 f44 ?v0) f7) f52)))
(assert (forall ((?v0 S4)) (= (f25 (f26 f38 ?v0) f7) f46)))
(assert (forall ((?v0 S4) (?v1 S4)) (let ((?v_0 (f6 f7))) (=> (= (f5 ?v_0 ?v0) f1) (=> (= (f5 ?v_0 ?v1) f1) (= (f5 (f6 (f25 (f26 f27 ?v1) ?v0)) ?v1) f1))))))
(assert (forall ((?v0 S4) (?v1 S4)) (= (= (f5 (f6 f7) (f25 (f26 f27 ?v0) ?v1)) f1) (= (f5 (f6 ?v1) ?v0) f1))))
(assert (forall ((?v0 S4) (?v1 S4)) (=> (= (f5 (f30 ?v0) ?v1) f1) (= (f25 (f26 f27 ?v0) ?v1) f7))))
(assert (forall ((?v0 S4) (?v1 S4)) (= (= (f25 (f26 f27 ?v0) ?v1) f7) (= (f5 (f30 ?v0) ?v1) f1))))
(assert (forall ((?v0 S4) (?v1 S4) (?v2 S4)) (let ((?v_0 (f30 ?v0))) (=> (= (f5 ?v_0 ?v1) f1) (=> (= (f5 ?v_0 ?v2) f1) (= (= (f5 (f6 (f25 (f26 f27 ?v1) ?v0)) (f25 (f26 f27 ?v2) ?v0)) f1) (= (f5 (f6 ?v1) ?v2) f1)))))))
(assert (forall ((?v0 S4) (?v1 S4) (?v2 S4)) (=> (= (f5 (f6 ?v0) ?v1) f1) (=> (= (f5 (f30 ?v2) ?v0) f1) (= (f5 (f6 (f25 (f26 f27 ?v0) ?v2)) (f25 (f26 f27 ?v1) ?v2)) f1)))))
(assert (forall ((?v0 S4) (?v1 S4) (?v2 S4)) (=> (= (f5 (f6 (f25 (f26 f38 ?v0) ?v1)) (f25 (f26 f38 ?v2) ?v1)) f1) (=> (= (f5 (f30 f7) ?v2) f1) (= (f5 (f6 ?v0) ?v2) f1)))))
(assert (forall ((?v0 S17) (?v1 S4) (?v2 S17)) (=> (= (f39 (f42 (f43 f44 ?v0) ?v1) (f42 (f43 f44 ?v2) ?v1)) f1) (=> (= (f40 f41 ?v2) f1) (= (f39 ?v0 ?v2) f1)))))
(check-sat)
(exit)
